<instance format="XCSP3" type="COP">
<variables>
<var id="xe_0"> 14 28 42 56 70 84 98 112 126 140 154 168 182 196 210 224 238 252 266 280 294 308 322 336 350 364 378 392 406 420 434 448 462 476 490 504 518 532 546 560 574 588 602 616 630 644 658 672 686 700 714 728 </var>
<var id="xr_0"> 14 28 56 70 84 98 112 126 140 154 168 182 196 224 238 280 294 308 322 350 364 378 392 406 420 434 462 490 504 518 546 560 574 588 602 616 630 658 686 728 </var>
<var id="xe_1"> 28 42 56 70 84 112 126 140 154 168 182 196 210 224 238 252 266 280 294 308 336 350 364 378 392 406 420 434 462 476 490 504 518 546 560 574 616 630 658 714 728 </var>
<var id="xr_1"> 14 28 42 56 70 98 126 168 182 196 210 224 238 252 266 294 308 322 336 364 378 392 406 420 434 448 462 490 504 518 532 560 574 602 616 630 658 672 686 700 714 728 </var>
<var id="xe_2"> 14 42 56 70 98 112 126 140 154 182 196 210 224 238 266 280 294 308 322 336 350 364 378 392 406 420 434 448 462 476 490 504 532 546 560 588 602 616 630 644 658 672 686 700 714 728 </var>
<var id="xr_2"> 14 28 42 56 70 84 98 126 140 154 168 182 210 238 252 266 280 294 308 364 378 392 420 434 448 462 476 490 504 518 532 546 588 602 616 630 672 686 700 714 728 </var>
<var id="xe_3"> 14 28 42 56 70 98 112 126 140 154 168 182 196 210 224 238 252 266 280 294 308 322 336 350 364 378 392 406 420 434 448 476 490 504 518 532 560 574 588 602 616 630 644 658 672 686 700 714 728 </var>
<var id="xr_3"> 14 28 42 56 70 84 112 126 140 154 168 182 196 210 224 238 252 266 280 294 322 336 350 364 378 392 406 420 434 448 462 476 490 504 518 532 546 560 574 588 602 616 630 644 658 672 686 700 714 728 </var>
<var id="xe_4"> 14 28 42 70 84 98 112 140 154 168 196 210 224 266 280 294 308 322 336 364 378 392 420 434 448 462 476 490 504 518 532 546 560 574 588 602 630 644 658 686 700 714 728 </var>
<var id="xr_4"> 28 42 56 70 98 112 126 140 154 168 182 196 210 224 238 266 280 294 308 322 350 364 420 434 462 476 504 518 532 546 560 574 588 602 616 644 658 686 700 728 </var>
<var id="xe_5"> 14 28 56 70 84 98 112 126 154 168 182 196 210 224 238 252 266 308 322 336 350 364 378 392 406 434 448 476 490 504 518 532 546 560 574 616 630 644 658 672 700 714 728 </var>
<var id="xr_5"> 14 28 42 56 70 84 98 112 126 140 154 168 182 196 210 224 238 252 266 280 308 322 336 350 378 392 406 420 434 448 462 476 490 504 546 560 574 588 616 630 644 658 672 686 700 728 </var>
<var id="xe_6"> 14 28 56 70 84 98 112 126 140 154 168 182 196 210 224 238 252 266 280 294 322 336 350 364 378 392 406 420 434 448 462 490 504 518 546 560 574 588 602 616 644 658 672 686 700 714 728 </var>
<var id="xr_6"> 14 28 56 70 84 98 112 126 140 154 168 182 196 210 224 238 252 266 280 308 322 336 350 364 378 406 420 434 448 462 476 490 504 518 532 560 588 602 616 630 644 658 672 700 728 </var>
<var id="xe_7"> 14 28 42 56 70 84 98 112 154 168 196 210 224 238 252 294 308 336 350 364 378 392 406 420 448 462 476 490 518 532 546 560 574 588 616 630 644 658 672 686 700 714 728 </var>
<var id="xr_7"> 14 28 42 56 70 84 126 140 154 168 182 196 224 252 266 280 294 308 350 364 378 392 406 420 434 448 462 476 490 504 518 532 546 560 588 602 616 630 644 658 686 700 714 728 </var>
<var id="xe_8"> 14 28 42 56 70 84 98 112 126 140 168 182 196 210 224 238 252 266 294 308 322 336 350 364 378 392 406 420 434 448 462 476 490 518 532 546 574 588 602 616 630 644 658 672 686 700 714 728 </var>
<var id="xr_8"> 14 28 42 56 70 84 98 112 126 140 154 168 182 210 238 252 266 280 294 308 322 336 350 378 392 406 420 434 448 462 476 490 504 518 532 560 574 588 630 644 658 672 700 714 728 </var>
<var id="xe_9"> 14 28 42 56 84 98 112 154 168 182 196 210 224 238 252 266 280 294 308 322 336 350 364 378 392 406 420 434 448 462 476 490 504 532 546 560 574 588 602 630 644 658 672 700 714 728 </var>
<var id="xr_9"> 28 42 70 84 98 112 126 140 154 168 182 196 210 224 238 252 280 294 308 322 350 364 392 406 420 434 448 462 476 490 504 518 532 546 560 574 588 602 616 630 644 658 672 686 700 714 728 </var>
<var id="xe_10"> 42 56 70 84 98 112 140 154 168 210 224 238 252 266 280 308 322 350 364 378 392 406 420 434 448 462 476 490 504 518 560 574 602 616 630 658 672 686 700 714 728 </var>
<var id="xr_10"> 14 42 56 70 84 98 112 126 140 154 168 182 196 210 224 238 252 266 280 294 322 336 364 378 392 406 420 434 448 462 490 504 546 560 574 588 602 616 630 644 658 672 686 714 728 </var>
<var id="xe_11"> 28 42 56 70 84 98 126 140 154 168 182 196 210 238 252 294 308 350 364 378 392 406 434 462 476 490 504 518 532 546 560 574 588 602 616 630 644 658 672 686 700 714 728 </var>
<var id="xr_11"> 14 28 42 56 70 84 112 126 140 168 182 210 238 252 280 294 308 322 336 350 364 378 406 420 434 448 490 518 532 546 574 588 602 616 630 658 672 686 700 714 </var>
<var id="xe_12"> 14 28 42 56 70 98 112 140 154 168 196 210 238 266 294 308 322 350 378 392 406 420 434 448 462 476 490 504 518 532 546 560 574 602 616 630 658 672 714 728 </var>
<var id="xr_12"> 14 28 56 84 98 112 126 154 168 182 196 210 224 238 252 266 294 308 322 336 350 364 378 392 406 420 434 448 462 476 504 518 532 546 588 616 630 644 658 672 686 700 714 728 </var>
<var id="xe_13"> 14 28 42 56 70 84 98 112 126 140 154 196 210 224 238 266 280 294 308 322 336 350 364 378 406 420 434 448 476 490 504 518 532 546 560 574 588 602 644 658 686 714 728 </var>
<var id="xr_13"> 14 42 56 70 84 98 112 126 140 168 182 196 210 224 238 252 266 280 308 322 336 350 364 378 392 406 420 448 462 476 490 504 518 532 546 560 574 588 602 616 630 658 672 700 728 </var>
<var id="xe_14"> 14 28 42 56 70 84 98 112 126 140 154 168 182 210 224 238 252 266 280 294 322 336 350 364 378 392 406 420 434 448 462 476 504 518 532 546 560 574 588 602 616 630 644 658 672 686 700 714 728 </var>
<var id="xr_14"> 14 28 56 70 84 98 112 126 140 154 168 182 196 224 238 266 280 308 322 336 350 364 378 392 406 420 434 448 462 476 490 504 518 532 546 560 574 588 602 630 644 658 672 686 700 714 728 </var>
<var id="xe_15"> 14 28 42 56 70 84 98 112 126 140 154 168 182 196 210 224 238 280 294 308 322 350 378 392 406 434 448 476 490 518 532 574 588 602 616 630 644 658 672 700 714 </var>
<var id="xr_15"> 14 28 56 84 98 112 126 140 154 168 182 224 238 252 266 280 294 308 364 378 392 406 420 434 448 462 476 490 532 546 560 574 588 616 630 644 658 672 686 700 728 </var>
<var id="xe_16"> 14 28 42 70 84 98 154 168 182 196 210 224 252 266 280 294 308 322 336 350 364 378 392 406 420 434 448 462 476 504 518 532 546 560 574 602 616 630 644 658 672 686 700 714 728 </var>
<var id="xr_16"> 14 28 42 56 84 98 112 126 140 154 168 182 196 210 238 252 266 280 308 322 336 350 364 392 420 434 448 462 476 490 518 532 546 602 616 630 672 686 714 728 </var>
<var id="xe_17"> 14 28 42 56 70 84 98 112 126 140 154 168 182 196 210 224 238 252 266 294 308 322 336 350 364 378 392 406 420 434 462 476 490 504 518 532 546 560 574 588 602 616 630 644 658 672 686 700 714 728 </var>
<var id="xr_17"> 14 28 42 56 70 84 98 112 126 140 154 168 182 196 210 224 252 294 308 322 350 378 392 406 420 434 448 490 532 546 560 588 602 616 630 644 658 672 686 700 714 728 </var>
<var id="xe_18"> 14 28 42 56 70 84 98 126 140 168 196 210 224 252 266 280 294 308 322 336 350 364 378 406 420 434 448 462 490 504 518 532 546 560 574 602 616 644 672 700 728 </var>
<var id="xr_18"> 14 42 56 98 112 126 140 154 168 182 196 210 224 238 252 280 294 308 322 336 350 364 378 392 406 420 434 448 462 476 490 504 518 532 546 588 602 616 630 658 672 686 700 728 </var>
<var id="xe_19"> 14 28 42 56 70 84 98 112 126 140 154 168 182 196 210 224 238 252 266 280 294 322 336 350 364 378 392 406 420 434 448 462 476 490 504 518 532 546 560 574 588 602 616 630 644 658 672 686 700 714 728 </var>
<var id="xr_19"> 14 28 42 56 70 84 112 126 140 154 168 182 196 210 224 238 252 266 280 294 308 322 336 350 364 378 392 406 420 434 448 462 476 490 504 518 532 546 560 574 588 602 616 630 644 658 672 686 700 714 728 </var>
<var as="xe_0" id="xe_20"/>
<var id="xr_20"> 14 28 42 56 70 84 98 126 140 168 182 196 210 224 238 252 266 280 308 322 336 350 364 378 392 420 434 448 462 476 490 504 518 546 560 574 588 602 616 630 644 658 672 686 700 714 728 </var>
<var as="xe_0" id="xe_21"/>
<var id="xr_21"> 14 28 42 56 70 84 98 112 126 140 154 168 182 196 210 224 238 266 280 294 308 336 350 364 378 392 406 420 462 476 490 504 518 532 546 560 574 588 602 616 630 644 658 686 700 714 </var>
<var as="xe_0" id="xe_22"/>
<var id="xr_22"> 28 42 56 70 84 98 112 126 140 154 168 182 196 210 224 252 266 280 294 308 322 336 350 364 378 392 406 420 434 448 462 476 490 518 532 546 560 574 588 602 616 630 644 658 672 700 714 728 </var>
<var id="xe_23"> 14 42 56 70 84 98 112 126 140 154 182 196 210 224 238 252 266 294 308 336 350 364 378 392 406 448 476 504 518 532 560 588 602 616 630 644 658 672 686 700 714 728 </var>
<var id="xr_23"> 14 28 42 56 70 84 98 112 126 140 154 168 182 210 224 238 252 266 280 294 308 322 336 350 364 378 392 406 420 434 448 462 476 490 504 518 532 546 560 574 588 602 616 630 644 658 672 686 700 714 728 </var>
<var id="xe_24"> 14 28 42 56 70 84 98 112 126 154 168 210 224 238 266 294 308 322 336 350 364 378 406 420 434 448 462 504 518 532 546 560 574 588 616 644 658 672 700 714 728 </var>
<var id="xr_24"> 14 28 56 70 84 98 112 126 154 196 210 224 238 252 280 294 308 322 336 350 364 378 392 406 434 448 462 476 490 504 518 532 546 560 574 588 602 630 644 658 686 700 714 728 </var>
<var id="xe_25"> 14 28 42 70 84 98 112 126 140 154 168 182 196 210 238 252 266 280 294 308 322 336 350 364 378 392 406 420 434 448 462 490 504 518 532 546 560 574 588 602 616 630 644 672 686 714 728 </var>
<var id="xr_25"> 14 28 42 56 70 84 98 112 126 140 154 168 182 196 210 224 238 252 266 280 294 308 322 336 350 364 378 392 406 420 434 448 462 490 504 518 532 546 560 574 588 602 616 630 644 658 672 686 700 714 728 </var>
<var id="xe_26"> 14 28 42 56 70 84 98 112 126 140 168 182 196 210 224 238 252 266 280 294 308 322 336 350 364 378 392 406 420 434 448 462 476 490 504 518 532 546 560 574 588 602 616 630 644 658 672 686 700 714 728 </var>
<var id="xr_26"> 14 28 42 56 70 84 98 112 126 140 168 182 196 210 238 252 266 280 294 308 322 336 350 364 378 392 406 420 448 462 476 490 504 518 532 546 560 574 588 602 644 672 686 700 728 </var>
<var id="xe_27"> 14 28 42 56 70 84 98 112 126 154 168 182 196 210 224 238 252 266 280 294 308 322 336 350 364 392 406 462 476 490 504 518 546 574 588 602 616 630 644 658 672 686 700 714 </var>
<var id="xr_27"> 28 42 56 70 84 98 112 140 154 168 182 196 210 224 238 252 266 280 294 308 336 350 364 378 392 406 434 448 462 476 490 504 518 532 546 560 574 588 602 616 630 644 658 686 700 714 728 </var>
<var id="xe_28"> 14 28 42 56 70 84 98 112 126 140 154 168 182 196 210 224 238 252 266 280 294 308 322 336 350 364 378 392 406 420 434 448 462 476 490 518 532 546 560 574 588 602 616 630 644 658 672 686 700 714 728 </var>
<var id="xr_28"> 14 28 56 70 84 112 126 140 154 168 182 196 224 238 252 266 280 308 322 336 350 364 378 392 420 448 462 476 490 504 532 546 560 574 588 602 616 644 658 672 686 700 728 </var>
<var id="xe_29"> 14 28 42 56 70 98 112 126 140 154 168 182 196 210 224 238 252 266 280 294 308 322 336 350 364 378 392 406 420 434 448 462 476 490 504 518 532 546 560 574 588 602 616 630 644 658 672 686 700 714 728 </var>
<var as="xe_0" id="xr_29"/>
<var id="xe_30"> 14 28 42 56 70 84 98 112 140 154 168 182 196 210 224 238 266 280 294 308 322 336 350 364 378 406 420 434 448 462 476 490 504 518 532 546 560 574 602 616 630 644 658 672 686 700 714 728 </var>
<var id="xr_30"> 14 28 42 56 70 84 112 126 140 154 168 182 196 210 224 238 252 266 280 294 308 336 364 378 392 406 420 434 448 462 476 490 504 518 532 560 574 588 602 630 644 658 672 686 700 714 728 </var>
<var id="xe_31"> 28 42 56 70 84 98 112 126 140 154 168 182 196 238 252 266 294 308 336 350 364 378 392 406 420 434 448 462 476 490 504 518 532 546 560 574 588 602 616 630 644 658 672 686 700 728 </var>
<var id="xr_31"> 14 42 56 70 84 112 126 140 154 168 182 196 210 224 238 252 294 308 322 350 364 378 392 448 462 476 490 504 518 532 546 574 588 616 630 644 658 686 700 714 </var>
<var id="xe_32"> 14 28 42 56 70 98 112 126 140 154 168 182 196 210 252 266 280 294 308 336 350 364 378 392 406 434 462 476 490 504 518 532 546 560 574 588 616 630 658 672 686 700 714 728 </var>
<var id="xr_32"> 28 42 70 84 98 112 126 154 168 196 210 224 238 266 294 308 322 336 364 378 392 420 434 448 462 476 504 518 532 546 560 588 616 630 644 658 672 686 714 728 </var>
<var id="xe_33"> 14 28 42 56 70 84 98 112 126 140 154 168 182 196 210 224 238 252 266 280 308 322 336 350 364 392 406 420 434 448 462 476 490 504 518 532 546 560 588 602 616 630 644 658 672 686 700 714 728 </var>
<var id="xr_33"> 14 28 42 56 70 84 98 112 126 140 154 168 182 196 210 224 238 252 266 280 294 308 322 336 350 378 392 406 434 448 462 476 490 504 518 532 546 560 574 588 602 616 630 644 658 672 686 700 714 728 </var>
<var as="xe_19" id="xe_34"/>
<var id="xr_34"> 14 28 42 56 70 84 98 112 126 140 154 182 196 210 224 238 252 266 280 294 308 322 336 350 364 378 392 406 420 434 448 490 504 532 560 574 588 602 616 630 644 658 672 686 714 728 </var>
<var id="xe_35"> 14 28 42 56 84 98 112 126 140 154 168 238 252 266 280 294 322 336 364 378 392 406 434 448 462 476 504 532 560 588 602 616 630 644 658 672 686 700 714 728 </var>
<var id="xr_35"> 14 42 56 70 84 98 112 126 140 154 168 182 210 238 252 266 280 308 336 350 364 378 392 406 420 434 448 462 490 504 532 560 574 588 616 630 644 658 672 686 714 728 </var>
<var id="xe_36"> 28 42 70 84 98 112 126 140 154 168 182 196 210 224 238 266 280 294 308 322 336 350 364 378 392 406 434 448 462 476 490 504 518 532 546 560 588 616 630 644 658 672 686 700 714 728 </var>
<var id="xr_36"> 14 28 42 56 70 84 98 112 126 140 154 168 182 196 210 224 238 252 266 280 294 308 322 336 350 364 392 420 434 448 476 490 504 518 532 546 560 574 588 602 616 630 644 658 672 686 700 714 728 </var>
<var id="xe_37"> 14 56 84 98 112 126 140 154 168 182 196 224 238 252 266 280 294 308 322 336 364 378 392 406 420 434 448 462 476 490 504 532 546 560 574 588 602 616 644 658 672 686 700 714 728 </var>
<var id="xr_37"> 14 28 42 70 84 98 112 126 140 154 168 182 196 210 224 238 252 266 294 336 350 364 378 392 406 420 434 462 476 490 504 518 532 546 560 574 588 602 616 644 658 672 686 700 714 728 </var>
<var id="xe_38"> 14 28 56 70 84 112 126 140 154 168 210 224 238 266 294 308 322 336 350 406 420 434 448 462 490 504 518 532 560 574 588 616 630 644 658 672 686 700 714 728 </var>
<var id="xr_38"> 14 28 42 56 70 84 98 112 140 154 168 182 196 210 224 238 252 266 280 294 308 322 336 350 364 378 392 406 420 434 448 462 476 504 518 532 546 560 574 588 602 616 630 644 658 672 686 700 714 728 </var>
<var id="xe_39"> 14 28 42 56 84 112 126 140 154 196 210 224 238 252 266 294 322 336 350 364 392 406 420 434 448 462 476 490 504 532 546 560 574 602 616 658 686 700 714 728 </var>
<var as="xr_23" id="xr_39"/>
<var as="xe_0" id="xe_40"/>
<var id="xr_40"> 14 28 42 56 70 84 98 112 126 140 154 168 182 196 210 224 238 252 266 280 294 308 322 336 350 364 378 392 406 420 434 448 462 476 504 518 532 546 560 574 588 602 616 630 658 672 686 700 714 728 </var>
<var id="xe_41"> 14 28 56 70 84 98 112 126 140 154 168 182 196 210 224 238 252 266 280 294 308 336 350 378 392 406 420 434 448 462 504 518 532 546 560 602 616 644 658 672 686 714 728 </var>
<var id="xr_41"> 14 28 42 56 70 84 98 112 140 154 182 196 210 238 252 266 280 294 308 322 336 350 364 378 434 448 462 476 490 504 518 532 546 560 574 588 602 616 630 644 658 672 686 700 714 728 </var>
<var id="xe_42"> 14 28 42 84 98 112 126 168 182 196 210 224 252 266 280 294 308 322 350 364 392 434 448 462 476 490 504 518 532 546 560 574 588 616 630 658 672 686 700 728 </var>
<var id="xr_42"> 14 28 42 56 70 84 98 112 126 140 154 168 196 210 238 252 266 280 294 308 322 336 350 364 378 392 406 420 434 448 462 476 490 518 532 546 574 588 616 630 644 658 672 686 700 714 728 </var>
<var id="xe_43"> 14 28 42 56 70 84 98 112 126 140 168 182 196 210 224 238 280 294 308 322 336 378 406 420 434 448 462 476 490 504 532 546 560 574 588 602 616 630 644 658 686 700 714 728 </var>
<var id="xr_43"> 14 28 42 70 98 112 126 140 154 168 182 196 210 224 238 252 280 294 308 336 364 378 392 406 420 434 448 462 476 504 518 532 546 560 588 602 616 630 644 658 672 686 700 714 728 </var>
<var as="xe_29" id="xe_44"/>
<var id="xr_44"> 14 28 56 70 84 112 140 154 168 196 224 238 266 280 294 308 322 336 350 364 378 406 420 434 448 462 490 504 532 546 560 574 588 602 616 630 644 672 686 700 714 728 </var>
<var id="xe_45"> 14 28 42 56 84 98 112 126 154 210 224 238 252 266 294 322 336 350 364 378 392 420 434 448 462 476 490 504 518 532 546 560 588 602 616 630 644 658 672 686 700 714 </var>
<var as="xr_19" id="xr_45"/>
<var id="xe_46"> 84 98 112 126 140 154 168 182 196 210 238 252 266 280 294 308 322 336 364 378 392 406 420 434 462 476 490 504 518 532 546 560 574 588 602 616 630 644 658 672 686 700 714 728 </var>
<var id="xr_46"> 14 28 42 56 70 98 112 126 140 154 182 196 224 238 252 266 280 294 308 322 336 350 364 378 392 406 420 434 448 462 476 504 518 532 546 560 574 602 630 658 672 686 700 728 </var>
<var id="xe_47"> 28 42 56 70 84 98 112 140 154 168 182 210 224 252 266 294 308 322 336 350 364 378 392 406 420 434 462 490 504 518 532 546 560 574 588 602 616 630 644 658 672 686 700 714 728 </var>
<var as="xe_0" id="xr_47"/>
<var id="xe_48"> 14 28 42 56 84 98 112 126 140 154 182 196 210 252 266 280 294 308 322 336 350 364 378 392 406 434 448 462 476 490 504 518 532 546 560 588 602 616 630 672 700 714 </var>
<var id="xr_48"> 14 28 42 56 70 84 98 112 126 140 154 168 182 210 224 238 252 266 280 294 308 322 336 350 364 378 392 406 420 434 448 462 476 490 504 518 532 560 574 588 616 630 644 658 672 686 700 714 728 </var>
<var id="xe_49"> 14 28 42 56 70 84 98 112 140 154 168 182 210 224 266 280 308 322 336 350 364 378 392 406 420 434 448 462 476 490 518 532 560 574 588 602 616 630 644 658 672 686 714 728 </var>
<var id="xr_49"> 14 28 42 56 70 98 112 126 140 154 168 210 224 238 252 266 280 294 308 322 336 364 378 392 406 420 434 448 462 476 490 504 518 532 546 560 574 588 602 616 630 644 672 686 700 714 728 </var>
</variables>
<constraints>
<group note="A station must have delta between emitting and receiving frequencies">
<intension> lt(%0,dist(%1,%2)) </intension>
<args> 266 xe_0 xr_0 </args>
<args> 266 xe_1 xr_1 </args>
<args> 266 xe_2 xr_2 </args>
<args> 266 xe_3 xr_3 </args>
<args> 266 xe_4 xr_4 </args>
<args> 266 xe_5 xr_5 </args>
<args> 266 xe_6 xr_6 </args>
<args> 266 xe_7 xr_7 </args>
<args> 266 xe_8 xr_8 </args>
<args> 266 xe_9 xr_9 </args>
<args> 266 xe_10 xr_10 </args>
<args> 266 xe_11 xr_11 </args>
<args> 266 xe_12 xr_12 </args>
<args> 266 xe_13 xr_13 </args>
<args> 266 xe_14 xr_14 </args>
<args> 266 xe_15 xr_15 </args>
<args> 266 xe_16 xr_16 </args>
<args> 266 xe_17 xr_17 </args>
<args> 266 xe_18 xr_18 </args>
<args> 266 xe_19 xr_19 </args>
<args> 266 xe_20 xr_20 </args>
<args> 266 xe_21 xr_21 </args>
<args> 266 xe_22 xr_22 </args>
<args> 266 xe_23 xr_23 </args>
<args> 266 xe_24 xr_24 </args>
<args> 266 xe_25 xr_25 </args>
<args> 266 xe_26 xr_26 </args>
<args> 266 xe_27 xr_27 </args>
<args> 266 xe_28 xr_28 </args>
<args> 266 xe_29 xr_29 </args>
<args> 266 xe_30 xr_30 </args>
<args> 266 xe_31 xr_31 </args>
<args> 266 xe_32 xr_32 </args>
<args> 266 xe_33 xr_33 </args>
<args> 266 xe_34 xr_34 </args>
<args> 266 xe_35 xr_35 </args>
<args> 266 xe_36 xr_36 </args>
<args> 266 xe_37 xr_37 </args>
<args> 266 xe_38 xr_38 </args>
<args> 266 xe_39 xr_39 </args>
<args> 266 xe_40 xr_40 </args>
<args> 266 xe_41 xr_41 </args>
<args> 266 xe_42 xr_42 </args>
<args> 266 xe_43 xr_43 </args>
<args> 266 xe_44 xr_44 </args>
<args> 266 xe_45 xr_45 </args>
<args> 266 xe_46 xr_46 </args>
<args> 266 xe_47 xr_47 </args>
<args> 266 xe_48 xr_48 </args>
<args> 266 xe_49 xr_49 </args>
</group>
<group note="If interferences between two stations then must frequencies must be Delta apart...(emitting, emitting)">
<intension> lt(%0,dist(%1,%2)) </intension>
<args> 50 xe_0 xe_14 </args>
<args> 50 xe_0 xe_24 </args>
<args> 20 xe_0 xe_26 </args>
<args> 20 xe_0 xe_1 </args>
<args> 50 xe_1 xe_25 </args>
<args> 30 xe_1 xe_24 </args>
<args> 30 xe_1 xe_10 </args>
<args> 30 xe_1 xe_17 </args>
<args> 20 xe_2 xe_33 </args>
<args> 30 xe_3 xe_23 </args>
<args> 40 xe_3 xe_18 </args>
<args> 30 xe_3 xe_42 </args>
<args> 40 xe_3 xe_12 </args>
<args> 40 xe_4 xe_18 </args>
<args> 40 xe_4 xe_5 </args>
<args> 30 xe_6 xe_29 </args>
<args> 50 xe_6 xe_27 </args>
<args> 50 xe_7 xe_23 </args>
<args> 40 xe_7 xe_35 </args>
<args> 20 xe_7 xe_39 </args>
<args> 20 xe_7 xe_12 </args>
<args> 40 xe_8 xe_35 </args>
<args> 20 xe_9 xe_47 </args>
<args> 40 xe_10 xe_37 </args>
<args> 20 xe_11 xe_26 </args>
<args> 40 xe_11 xe_44 </args>
<args> 40 xe_12 xe_20 </args>
<args> 20 xe_12 xe_48 </args>
<args> 40 xe_12 xe_30 </args>
<args> 40 xe_12 xe_15 </args>
<args> 50 xe_13 xe_39 </args>
<args> 30 xe_14 xe_29 </args>
<args> 40 xe_14 xe_24 </args>
<args> 30 xe_18 xe_36 </args>
<args> 20 xe_19 xe_23 </args>
<args> 50 xe_21 xe_29 </args>
<args> 40 xe_22 xe_40 </args>
<args> 20 xe_22 xe_43 </args>
<args> 30 xe_22 xe_45 </args>
<args> 30 xe_22 xe_49 </args>
<args> 30 xe_23 xe_40 </args>
<args> 50 xe_23 xe_37 </args>
<args> 40 xe_23 xe_32 </args>
<args> 40 xe_24 xe_25 </args>
<args> 20 xe_25 xe_41 </args>
<args> 50 xe_26 xe_38 </args>
<args> 30 xe_28 xe_41 </args>
<args> 30 xe_31 xe_40 </args>
<args> 30 xe_31 xe_43 </args>
<args> 30 xe_31 xe_33 </args>
<args> 40 xe_33 xe_46 </args>
<args> 50 xe_34 xe_38 </args>
<args> 30 xe_34 xe_45 </args>
<args> 40 xe_35 xe_42 </args>
<args> 30 xe_35 xe_36 </args>
<args> 50 xe_38 xe_44 </args>
</group>
<group note="If interferences between two stations then must frequencies must be Delta apart...(emitting, receiving)">
<intension> lt(%0,dist(%1,%2)) </intension>
<args> 50 xe_0 xr_14 </args>
<args> 50 xe_0 xr_24 </args>
<args> 20 xe_0 xr_26 </args>
<args> 20 xe_0 xr_1 </args>
<args> 50 xe_1 xr_25 </args>
<args> 30 xe_1 xr_24 </args>
<args> 30 xe_1 xr_10 </args>
<args> 30 xe_1 xr_17 </args>
<args> 20 xe_2 xr_33 </args>
<args> 30 xe_3 xr_23 </args>
<args> 40 xe_3 xr_18 </args>
<args> 30 xe_3 xr_42 </args>
<args> 40 xe_3 xr_12 </args>
<args> 40 xe_4 xr_18 </args>
<args> 40 xe_4 xr_5 </args>
<args> 30 xe_6 xr_29 </args>
<args> 50 xe_6 xr_27 </args>
<args> 50 xe_7 xr_23 </args>
<args> 40 xe_7 xr_35 </args>
<args> 20 xe_7 xr_39 </args>
<args> 20 xe_7 xr_12 </args>
<args> 40 xe_8 xr_35 </args>
<args> 20 xe_9 xr_47 </args>
<args> 40 xe_10 xr_37 </args>
<args> 20 xe_11 xr_26 </args>
<args> 40 xe_11 xr_44 </args>
<args> 40 xe_12 xr_20 </args>
<args> 20 xe_12 xr_48 </args>
<args> 40 xe_12 xr_30 </args>
<args> 40 xe_12 xr_15 </args>
<args> 50 xe_13 xr_39 </args>
<args> 30 xe_14 xr_29 </args>
<args> 40 xe_14 xr_24 </args>
<args> 30 xe_18 xr_36 </args>
<args> 20 xe_19 xr_23 </args>
<args> 50 xe_21 xr_29 </args>
<args> 40 xe_22 xr_40 </args>
<args> 20 xe_22 xr_43 </args>
<args> 30 xe_22 xr_45 </args>
<args> 30 xe_22 xr_49 </args>
<args> 30 xe_23 xr_40 </args>
<args> 50 xe_23 xr_37 </args>
<args> 40 xe_23 xr_32 </args>
<args> 40 xe_24 xr_25 </args>
<args> 20 xe_25 xr_41 </args>
<args> 50 xe_26 xr_38 </args>
<args> 30 xe_28 xr_41 </args>
<args> 30 xe_31 xr_40 </args>
<args> 30 xe_31 xr_43 </args>
<args> 30 xe_31 xr_33 </args>
<args> 40 xe_33 xr_46 </args>
<args> 50 xe_34 xr_38 </args>
<args> 30 xe_34 xr_45 </args>
<args> 40 xe_35 xr_42 </args>
<args> 30 xe_35 xr_36 </args>
<args> 50 xe_38 xr_44 </args>
</group>
<group note="If interferences between two stations then must frequencies must be Delta apart...(receiving, emitting)">
<intension> lt(%0,dist(%1,%2)) </intension>
<args> 50 xr_0 xe_14 </args>
<args> 50 xr_0 xe_24 </args>
<args> 20 xr_0 xe_26 </args>
<args> 20 xr_0 xe_1 </args>
<args> 50 xr_1 xe_25 </args>
<args> 30 xr_1 xe_24 </args>
<args> 30 xr_1 xe_10 </args>
<args> 30 xr_1 xe_17 </args>
<args> 20 xr_2 xe_33 </args>
<args> 30 xr_3 xe_23 </args>
<args> 40 xr_3 xe_18 </args>
<args> 30 xr_3 xe_42 </args>
<args> 40 xr_3 xe_12 </args>
<args> 40 xr_4 xe_18 </args>
<args> 40 xr_4 xe_5 </args>
<args> 30 xr_6 xe_29 </args>
<args> 50 xr_6 xe_27 </args>
<args> 50 xr_7 xe_23 </args>
<args> 40 xr_7 xe_35 </args>
<args> 20 xr_7 xe_39 </args>
<args> 20 xr_7 xe_12 </args>
<args> 40 xr_8 xe_35 </args>
<args> 20 xr_9 xe_47 </args>
<args> 40 xr_10 xe_37 </args>
<args> 20 xr_11 xe_26 </args>
<args> 40 xr_11 xe_44 </args>
<args> 40 xr_12 xe_20 </args>
<args> 20 xr_12 xe_48 </args>
<args> 40 xr_12 xe_30 </args>
<args> 40 xr_12 xe_15 </args>
<args> 50 xr_13 xe_39 </args>
<args> 30 xr_14 xe_29 </args>
<args> 40 xr_14 xe_24 </args>
<args> 30 xr_18 xe_36 </args>
<args> 20 xr_19 xe_23 </args>
<args> 50 xr_21 xe_29 </args>
<args> 40 xr_22 xe_40 </args>
<args> 20 xr_22 xe_43 </args>
<args> 30 xr_22 xe_45 </args>
<args> 30 xr_22 xe_49 </args>
<args> 30 xr_23 xe_40 </args>
<args> 50 xr_23 xe_37 </args>
<args> 40 xr_23 xe_32 </args>
<args> 40 xr_24 xe_25 </args>
<args> 20 xr_25 xe_41 </args>
<args> 50 xr_26 xe_38 </args>
<args> 30 xr_28 xe_41 </args>
<args> 30 xr_31 xe_40 </args>
<args> 30 xr_31 xe_43 </args>
<args> 30 xr_31 xe_33 </args>
<args> 40 xr_33 xe_46 </args>
<args> 50 xr_34 xe_38 </args>
<args> 30 xr_34 xe_45 </args>
<args> 40 xr_35 xe_42 </args>
<args> 30 xr_35 xe_36 </args>
<args> 50 xr_38 xe_44 </args>
</group>
<group note="If interferences between two stations then must frequencies must be Delta apart...(receiving, receiving)">
<intension> lt(%0,dist(%1,%2)) </intension>
<args> 50 xr_0 xr_14 </args>
<args> 50 xr_0 xr_24 </args>
<args> 20 xr_0 xr_26 </args>
<args> 20 xr_0 xr_1 </args>
<args> 50 xr_1 xr_25 </args>
<args> 30 xr_1 xr_24 </args>
<args> 30 xr_1 xr_10 </args>
<args> 30 xr_1 xr_17 </args>
<args> 20 xr_2 xr_33 </args>
<args> 30 xr_3 xr_23 </args>
<args> 40 xr_3 xr_18 </args>
<args> 30 xr_3 xr_42 </args>
<args> 40 xr_3 xr_12 </args>
<args> 40 xr_4 xr_18 </args>
<args> 40 xr_4 xr_5 </args>
<args> 30 xr_6 xr_29 </args>
<args> 50 xr_6 xr_27 </args>
<args> 50 xr_7 xr_23 </args>
<args> 40 xr_7 xr_35 </args>
<args> 20 xr_7 xr_39 </args>
<args> 20 xr_7 xr_12 </args>
<args> 40 xr_8 xr_35 </args>
<args> 20 xr_9 xr_47 </args>
<args> 40 xr_10 xr_37 </args>
<args> 20 xr_11 xr_26 </args>
<args> 40 xr_11 xr_44 </args>
<args> 40 xr_12 xr_20 </args>
<args> 20 xr_12 xr_48 </args>
<args> 40 xr_12 xr_30 </args>
<args> 40 xr_12 xr_15 </args>
<args> 50 xr_13 xr_39 </args>
<args> 30 xr_14 xr_29 </args>
<args> 40 xr_14 xr_24 </args>
<args> 30 xr_18 xr_36 </args>
<args> 20 xr_19 xr_23 </args>
<args> 50 xr_21 xr_29 </args>
<args> 40 xr_22 xr_40 </args>
<args> 20 xr_22 xr_43 </args>
<args> 30 xr_22 xr_45 </args>
<args> 30 xr_22 xr_49 </args>
<args> 30 xr_23 xr_40 </args>
<args> 50 xr_23 xr_37 </args>
<args> 40 xr_23 xr_32 </args>
<args> 40 xr_24 xr_25 </args>
<args> 20 xr_25 xr_41 </args>
<args> 50 xr_26 xr_38 </args>
<args> 30 xr_28 xr_41 </args>
<args> 30 xr_31 xr_40 </args>
<args> 30 xr_31 xr_43 </args>
<args> 30 xr_31 xr_33 </args>
<args> 40 xr_33 xr_46 </args>
<args> 50 xr_34 xr_38 </args>
<args> 30 xr_34 xr_45 </args>
<args> 40 xr_35 xr_42 </args>
<args> 30 xr_35 xr_36 </args>
<args> 50 xr_38 xr_44 </args>
</group>
<group note="If stations linked then they must have the same emitting and receiving Frequency">
<intension> eq(%0,%1) </intension>
<args> xe_8 xr_47 </args>
<args> xe_8 xr_15 </args>
<args> xe_11 xr_38 </args>
<args> xe_13 xr_16 </args>
<args> xe_30 xr_42 </args>
<args> xe_43 xr_44 </args>
</group>
<group note="If stations linked then they must have the same receiving and emitting Frequency">
<intension> eq(%0,%1) </intension>
<args> xr_8 xe_47 </args>
<args> xr_8 xe_15 </args>
<args> xr_11 xe_38 </args>
<args> xr_13 xe_16 </args>
<args> xr_30 xe_42 </args>
<args> xr_43 xe_44 </args>
</group>
<nValues note="Limit on number of frequencies per region">
<list> xe_8 xr_8 xe_9 xr_9 xe_12 xr_12 xe_15 xr_15 xe_30 xr_30 xe_35 xr_35 xe_36 xr_36 xe_47 xr_47 </list>
<condition> (le,16) </condition>
</nValues>
<nValues note="Limit on number of frequencies per region">
<list> xe_3 xr_3 xe_4 xr_4 xe_5 xr_5 xe_18 xr_18 xe_19 xr_19 xe_20 xr_20 xe_42 xr_42 </list>
<condition> (le,12) </condition>
</nValues>
<nValues note="Limit on number of frequencies per region">
<list> xe_0 xr_0 xe_11 xr_11 xe_21 xr_21 xe_24 xr_24 xe_26 xr_26 xe_34 xr_34 xe_38 xr_38 xe_44 xr_44 xe_45 xr_45 </list>
<condition> (le,17) </condition>
</nValues>
<nValues note="Limit on number of frequencies per region">
<list> xe_2 xr_2 xe_10 xr_10 xe_17 xr_17 xe_22 xr_22 xe_32 xr_32 xe_33 xr_33 xe_37 xr_37 xe_46 xr_46 xe_49 xr_49 </list>
<condition> (le,17) </condition>
</nValues>
<nValues note="Limit on number of frequencies per region">
<list> xe_7 xr_7 xe_13 xr_13 xe_16 xr_16 xe_39 xr_39 xe_48 xr_48 </list>
<condition> (le,8) </condition>
</nValues>
<nValues note="Limit on number of frequencies per region">
<list> xe_23 xr_23 xe_31 xr_31 xe_40 xr_40 xe_43 xr_43 </list>
<condition> (le,6) </condition>
</nValues>
<nValues note="Limit on number of frequencies per region">
<list> xe_1 xr_1 xe_6 xr_6 xe_14 xr_14 xe_25 xr_25 xe_27 xr_27 xe_28 xr_28 xe_29 xr_29 xe_41 xr_41 </list>
<condition> (le,14) </condition>
</nValues>
</constraints>
<objectives>
<minimize type="maximum"> xe_0 xr_0 xe_1 xr_1 xe_2 xr_2 xe_3 xr_3 xe_4 xr_4 xe_5 xr_5 xe_6 xr_6 xe_7 xr_7 xe_8 xr_8 xe_9 xr_9 xe_10 xr_10 xe_11 xr_11 xe_12 xr_12 xe_13 xr_13 xe_14 xr_14 xe_15 xr_15 xe_16 xr_16 xe_17 xr_17 xe_18 xr_18 xe_19 xr_19 xe_20 xr_20 xe_21 xr_21 xe_22 xr_22 xe_23 xr_23 xe_24 xr_24 xe_25 xr_25 xe_26 xr_26 xe_27 xr_27 xe_28 xr_28 xe_29 xr_29 xe_30 xr_30 xe_31 xr_31 xe_32 xr_32 xe_33 xr_33 xe_34 xr_34 xe_35 xr_35 xe_36 xr_36 xe_37 xr_37 xe_38 xr_38 xe_39 xr_39 xe_40 xr_40 xe_41 xr_41 xe_42 xr_42 xe_43 xr_43 xe_44 xr_44 xe_45 xr_45 xe_46 xr_46 xe_47 xr_47 xe_48 xr_48 xe_49 xr_49 </minimize>
</objectives>
</instance>
